
List of user-set options:

                                    Name   Value                used
                           compl_inf_tol = 1                     yes
                         constr_viol_tol = 1                     yes
                            dual_inf_tol = 1000                  yes
                           linear_solver = ma97                  yes
                              ma86_small = 1e-30                  no
                                  ma86_u = 0.0001                 no
                              ma97_order = best                  yes
                              ma97_small = 1e-30                 yes
                            ma97_switch1 = at_start              yes
                            ma97_switch2 = od_hd_reuse           yes
                                  ma97_u = 1e-06                 yes
                               ma97_umax = 0.5                   yes
                                max_iter = 1000                  yes
                    max_refinement_steps = 20                    yes
                    min_refinement_steps = 5                     yes
                                 mu_init = 1e-06                 yes
           mu_superlinear_decrease_power = 1.25                  yes
                   nlp_scaling_min_value = 1e-08                 yes
                        option_file_name = Preset_Case:_271_NCP.opt  yes
                             output_file = ./tmp/Preset_Case:_271_NCP.output  yes
                      print_user_options = yes                   yes
        required_infeasibility_reduction = 1                      no
                                     tol = 1e-08                 yes
                   warm_start_bound_frac = 1e-20                 yes
                   warm_start_bound_push = 1e-20                 yes
                   warm_start_init_point = yes                   yes
              warm_start_mult_bound_push = 1e-20                 yes
                warm_start_mult_init_max = 1e+40                 yes
             warm_start_slack_bound_frac = 1e-20                 yes
             warm_start_slack_bound_push = 1e-20                 yes

******************************************************************************
This program contains Ipopt, a library for large-scale nonlinear optimization.
 Ipopt is released as open source code under the Eclipse Public License (EPL).
         For more information visit http://projects.coin-or.org/Ipopt
******************************************************************************

This is Ipopt version 3.12.10, running with linear solver ma97.

Number of nonzeros in equality constraint Jacobian...:   117167
Number of nonzeros in inequality constraint Jacobian.:      213
Number of nonzeros in Lagrangian Hessian.............:    47513

Total number of variables............................:    29977
                     variables with only lower bounds:    11312
                variables with lower and upper bounds:    15135
                     variables with only upper bounds:        0
Total number of equality constraints.................:    29864
Total number of inequality constraints...............:       25
        inequality constraints with only lower bounds:        4
   inequality constraints with lower and upper bounds:        0
        inequality constraints with only upper bounds:       21

iter    objective    inf_pr   inf_du lg(mu)  ||d||  lg(rg) alpha_du alpha_pr  ls
   0 -1.1290825e-01 2.43e-01 2.00e+00  -6.0 0.00e+00    -  0.00e+00 0.00e+00   0
In iteration 0, 9 Slacks too small, adjusting variable bounds
   1 -1.1290825e-01 2.43e-01 6.14e+02  -6.0 1.08e+10    -  6.13e-14 3.48e-19h  1
   2 -1.1290772e-01 2.43e-01 6.14e+02  -6.0 8.98e+01    -  1.00e-02 1.99e-05f  1
   3 -1.1290662e-01 2.43e-01 6.14e+02  -6.0 8.08e+01    -  2.55e-02 4.14e-05h  1
   4 -1.1189792e-01 2.34e-01 8.79e+02  -6.0 8.08e+01    -  2.58e-02 3.75e-02h  1
   5 -1.0987503e-01 2.18e-01 8.24e+02  -6.0 1.02e+02    -  4.58e-02 6.73e-02h  1
   6 -1.0888785e-01 2.10e-01 2.34e+04  -6.0 6.85e+01    -  2.63e-04 3.72e-02h  1
   7 -1.0888102e-01 2.10e-01 1.64e+04  -6.0 6.86e+01    -  1.14e-02 2.72e-04h  1
   8 -1.0706047e-01 1.95e-01 2.38e+04  -6.0 6.93e+01    -  6.03e-02 7.34e-02h  2
   9 -1.0522662e-01 1.80e-01 1.70e+04  -6.0 6.47e+01    -  8.54e-02 7.79e-02h  1
iter    objective    inf_pr   inf_du lg(mu)  ||d||  lg(rg) alpha_du alpha_pr  ls
  10 -1.0375495e-01 1.68e-01 4.63e+04  -6.0 5.83e+01    -  1.66e-01 6.37e-02h  3
  11 -1.0152177e-01 1.51e-01 4.85e+04  -6.0 5.56e+01    -  1.19e-01 1.04e-01h  2
  12 -9.9211773e-02 1.33e-01 1.04e+05  -6.0 5.23e+01    -  2.71e-01 1.17e-01h  1
  13 -9.9350108e-02 1.32e-01 1.04e+05  -6.0 1.06e+02    -  1.11e-02 8.71e-03h  1
  14 -1.0006314e-01 1.26e-01 9.66e+04  -6.0 1.05e+02    -  3.67e-02 4.54e-02f  3
  15 -1.0053336e-01 1.22e-01 1.13e+05  -6.0 8.96e+01    -  9.17e-02 3.21e-02h  3
  16 -1.0092892e-01 1.19e-01 1.10e+05  -6.0 9.14e+01    -  3.22e-02 2.80e-02h  3
  17 -1.0123936e-01 1.16e-01 1.11e+05  -6.0 8.99e+01    -  3.36e-02 2.24e-02h  3
  18 -1.0165907e-01 1.12e-01 1.48e+05  -6.0 9.13e+01    -  2.00e-01 3.08e-02h  2
  19 -1.0210488e-01 1.09e-01 1.51e+05  -6.0 8.52e+01    -  8.56e-02 3.29e-02h  1
iter    objective    inf_pr   inf_du lg(mu)  ||d||  lg(rg) alpha_du alpha_pr  ls
  20 -1.0763450e-01 2.39e+00 4.33e+04  -6.0 6.91e+01    -  2.33e-02 4.26e-01h  1
  21 -1.0763891e-01 2.39e+00 4.44e+04  -6.0 1.32e+02    -  3.84e-01 3.71e-04h  1
  22 -1.0964359e-01 2.09e+00 1.70e+04  -6.0 2.10e+02    -  2.95e-01 1.29e-01h  1
  23 -1.1164660e-01 1.99e+00 4.78e+05  -6.0 5.24e+02    -  7.51e-02 1.11e-01h  1
  24r-1.1164660e-01 1.99e+00 1.00e+03  -0.2 0.00e+00    -  0.00e+00 2.99e-07R  4
  25r-1.1148934e-01 1.98e+00 1.00e+03  -0.2 4.41e+03    -  1.12e-05 5.03e-06f  1
  26 -1.1149771e-01 1.98e+00 1.89e+05  -6.0 3.35e+01    -  1.18e-01 1.66e-03h  1
  27 -1.1209377e-01 1.77e+00 1.18e+07  -6.0 3.39e+01    -  1.66e-03 1.03e-01h  1
  28 -1.1210241e-01 1.77e+00 1.18e+07  -6.0 3.21e+01    -  1.56e-01 1.89e-03h  1
  29 -1.1261922e-01 1.55e+00 1.04e+07  -6.0 2.91e+01    -  3.23e-01 1.19e-01h  1
iter    objective    inf_pr   inf_du lg(mu)  ||d||  lg(rg) alpha_du alpha_pr  ls
  30 -1.1502330e-01 4.94e-01 2.73e+06  -6.0 4.19e+01    -  2.10e-04 7.37e-01h  1
  31 -1.1436955e-01 3.65e-01 1.34e+06  -6.0 5.64e+01    -  5.17e-05 5.08e-01h  1
  32 -1.1394674e-01 4.20e-01 2.50e+06  -6.0 1.04e+01    -  1.89e-01 1.00e+00h  1
  33 -1.1393124e-01 6.41e-04 2.52e+04  -6.0 3.27e-01    -  4.15e-01 1.00e+00h  1
  34 -1.1400139e-01 7.45e-05 9.86e+02  -6.0 2.54e-01    -  9.48e-01 1.00e+00h  1
  35 -1.1497600e-01 1.14e-02 3.58e+02  -6.0 6.45e+00    -  5.75e-01 4.83e-01h  1
  36 -1.1846723e-01 1.68e-01 2.28e+01  -6.0 1.26e+01    -  1.53e-01 1.00e+00f  1
  37 -1.2748620e-01 1.63e-01 5.86e+00  -6.0 5.04e+01    -  5.37e-01 6.88e-01h  1
  38 -1.4203150e-01 6.83e-01 5.28e+01  -6.0 1.06e+02    -  3.59e-01 6.87e-01h  1
  39 -1.4195500e-01 6.12e-01 4.27e+01  -6.0 4.04e+00  -4.0 6.16e-02 1.04e-01h  1
iter    objective    inf_pr   inf_du lg(mu)  ||d||  lg(rg) alpha_du alpha_pr  ls
  40 -1.4200736e-01 6.04e-01 4.30e+01  -6.0 3.86e+00  -4.5 1.05e-01 1.34e-02h  1
  41 -1.4404983e-01 3.78e-01 2.74e+01  -6.0 1.14e+01  -5.0 2.55e-01 3.36e-01f  1
  42 -1.4833465e-01 3.02e-01 3.48e+01  -6.0 2.23e+01  -5.4 2.36e-01 5.89e-01h  1
  43 -1.4904294e-01 2.82e-01 4.81e+01  -6.0 6.24e+01  -5.9 1.02e-02 6.47e-02h  1
  44 -1.5036548e-01 2.82e-01 3.73e+01  -6.0 9.19e+01    -  1.80e-03 6.39e-02f  1
  45 -1.5054036e-01 2.80e-01 3.73e+01  -6.0 3.67e+02    -  1.83e-02 4.98e-03h  1
  46 -1.5101451e-01 2.79e-01 4.98e+01  -6.0 1.62e+02    -  5.97e-02 2.97e-02f  1
  47 -1.5187184e-01 2.71e-01 1.70e+02  -6.0 1.63e+02    -  1.93e-01 3.48e-02h  1
  48 -1.5718597e-01 4.93e-01 7.50e+01  -6.0 1.70e+02    -  1.43e-01 2.10e-01h  1
  49 -1.6158919e-01 6.43e-01 7.36e+01  -6.0 1.56e+02    -  1.49e-03 1.69e-01h  1
iter    objective    inf_pr   inf_du lg(mu)  ||d||  lg(rg) alpha_du alpha_pr  ls
  50 -1.7204182e-01 1.94e+00 2.18e+01  -6.0 1.34e+02    -  5.23e-01 4.54e-01h  1
  51 -1.7365154e-01 1.76e+00 7.82e+02  -6.0 1.93e+02    -  3.96e-01 7.21e-02h  1
  52 -1.7587252e-01 1.34e+00 9.82e+02  -6.0 2.28e+02    -  1.66e-01 9.41e-02h  1
  53 -1.7887376e-01 1.44e+00 3.23e+03  -6.0 2.39e+02    -  5.36e-01 1.66e-01h  1
  54 -1.8802030e-01 1.24e+01 1.65e+02  -6.0 4.45e+02    -  1.48e-01 4.00e-01h  1
  55 -1.8886088e-01 1.03e+01 1.67e+03  -6.0 5.65e+01  -6.4 4.14e-01 2.69e-01h  1
  56 -1.8905810e-01 1.03e+01 1.27e+04  -6.0 2.23e+03    -  3.87e-01 7.29e-03h  1
  57 -1.9003272e-01 1.00e+01 1.12e+04  -6.0 3.91e+01  -6.9 3.47e-01 2.35e-01h  1
  58 -1.9005923e-01 8.48e+00 7.64e+03  -6.0 9.88e+00  -5.5 1.84e-02 1.56e-01h  1
  59 -1.9010039e-01 7.26e+00 1.96e+04  -6.0 3.90e+00  -6.0 6.72e-01 1.44e-01h  1
iter    objective    inf_pr   inf_du lg(mu)  ||d||  lg(rg) alpha_du alpha_pr  ls
  60 -1.9031405e-01 3.92e+00 1.58e+04  -6.0 1.01e+01  -6.5 8.15e-01 4.63e-01h  1
  61 -1.9050634e-01 3.32e+00 1.31e+04  -6.0 3.02e+01  -7.0 1.58e-01 1.54e-01h  1
  62 -1.9185100e-01 9.39e-01 9.94e+06  -6.0 8.48e+01  -7.4 3.06e-03 7.20e-01h  1
  63 -1.9497739e-01 9.67e-01 8.96e+01  -6.0 2.20e+02  -7.9 8.33e-04 1.00e+00h  1
  64 -1.9503331e-01 7.44e-01 4.36e+01  -6.0 1.14e+01  -5.7 4.98e-01 2.30e-01h  1
  65 -1.9511783e-01 5.00e-01 4.41e+01  -6.0 1.72e+01  -6.2 2.40e-03 3.28e-01h  1
  66 -1.9509701e-01 5.00e-01 4.41e+01  -6.0 2.75e+03  -6.6 2.89e-08 3.40e-04f  4
  67 -1.9512805e-01 4.91e-01 5.80e+01  -6.0 5.14e+01  -7.1 2.65e-01 1.76e-02h  1
  68 -1.9579330e-01 3.13e-01 5.76e+01  -6.0 1.07e+02  -7.6 1.80e-01 4.60e-01f  1
  69 -1.9648112e-01 3.21e-01 3.32e+01  -6.0 3.47e+02  -8.1 1.98e-03 1.54e-01h  1
iter    objective    inf_pr   inf_du lg(mu)  ||d||  lg(rg) alpha_du alpha_pr  ls
  70 -2.0145132e-01 2.79e+01 2.68e+01  -6.0 5.80e+03  -8.5 2.10e-01 1.97e-01h  1
  71 -2.0189242e-01 2.68e+01 1.79e+02  -6.0 8.28e+02  -8.1 5.01e-01 4.20e-02h  1
  72 -2.0247334e-01 2.66e+01 1.78e+02  -6.0 6.79e+03  -8.6 9.40e-02 1.28e-02h  1
  73 -2.0217188e-01 2.62e+01 2.72e+02  -6.0 5.14e+03  -8.2 9.87e-02 1.99e-02h  1
  74 -2.0605047e-01 2.19e+01 9.10e+02  -6.0 2.08e+03  -8.7 3.57e-01 1.91e-01h  1
  75 -2.1097130e-01 1.53e+01 1.01e+04  -6.0 6.42e+02  -7.3 3.45e-02 3.39e-01h  1
  76 -2.1161526e-01 1.48e+01 9.73e+03  -6.0 8.03e+02  -7.8 3.26e-02 3.63e-02h  1
  77 -2.1610437e-01 3.02e+01 6.98e+03  -6.0 6.42e+02  -8.3 1.22e-01 2.57e-01h  1
  78 -2.1652826e-01 2.92e+01 6.87e+03  -6.0 3.23e+03  -8.8 2.05e-01 3.61e-02h  1
  79 -2.1809659e-01 2.29e+01 5.44e+03  -6.0 5.03e+02  -8.3 2.51e-01 2.14e-01h  1
iter    objective    inf_pr   inf_du lg(mu)  ||d||  lg(rg) alpha_du alpha_pr  ls
  80 -2.1936592e-01 2.04e+01 4.88e+03  -6.0 1.21e+03  -8.8 1.51e-01 1.09e-01h  1
  81 -2.2047115e-01 1.54e+01 4.06e+03  -6.0 4.32e+02  -8.4 8.37e-01 2.44e-01h  1
  82 -2.2535797e-01 6.41e+00 1.62e+03  -6.0 6.57e+02  -8.9 3.00e-01 6.04e-01h  1
  83 -2.2728504e-01 5.87e+00 1.42e+03  -6.0 4.84e+03  -9.3 1.86e-01 1.22e-01h  1
  84 -2.2802232e-01 5.53e+00 1.34e+03  -6.0 1.60e+03  -8.9 1.99e-01 5.61e-02h  1
  85 -2.3079840e-01 7.09e+00 1.00e+03  -6.0 1.75e+03  -8.5 1.50e-01 2.53e-01h  1
  86 -2.3262261e-01 5.84e+00 1.05e+04  -6.0 3.11e+03  -9.0 7.19e-04 2.22e-01h  1
  87 -2.3496324e-01 9.93e+00 7.59e+03  -6.0 1.66e+03  -8.5 8.92e-02 2.78e-01h  1
  88 -2.3550507e-01 1.02e+01 7.36e+03  -6.0 1.90e+03  -9.0 9.46e-02 3.03e-02h  1
  89 -2.3597103e-01 9.99e+00 7.01e+03  -6.0 5.73e+02  -8.6 2.26e-04 4.74e-02h  1
iter    objective    inf_pr   inf_du lg(mu)  ||d||  lg(rg) alpha_du alpha_pr  ls
  90 -2.3619331e-01 9.78e+00 6.83e+03  -6.0 9.78e+02  -9.1 4.77e-05 2.49e-02f  1
  91 -2.3630162e-01 9.74e+00 6.80e+03  -6.0 2.34e+03  -8.6 4.74e-02 5.29e-03f  1
  92 -2.3711255e-01 9.21e+00 6.14e+03  -6.0 1.24e+03  -9.1 4.48e-02 9.69e-02h  1
  93 -2.3750509e-01 8.87e+00 5.85e+03  -6.0 1.23e+03  -9.6 2.07e-01 4.65e-02h  1
  94 -2.3783475e-01 8.36e+00 5.52e+03  -6.0 3.82e+03  -9.2 3.81e-02 5.76e-02h  1
  95 -2.3854659e-01 7.21e+00 4.61e+03  -6.0 1.22e+03  -9.6 5.96e-01 1.64e-01h  1
  96 -2.3990482e-01 5.00e+00 2.76e+03  -6.0 8.45e+02  -9.2 1.66e-01 4.03e-01h  1
  97 -2.4062694e-01 4.34e+00 2.31e+03  -6.0 1.60e+03  -9.7 5.77e-02 1.64e-01h  1
  98 -2.4163582e-01 3.33e+00 1.69e+03  -6.0 1.18e+03  -9.3 2.60e-01 2.69e-01h  1
  99 -2.4278964e-01 1.62e+01 1.38e+04  -6.0 2.69e+03  -9.7 1.34e-03 3.31e-01h  1
iter    objective    inf_pr   inf_du lg(mu)  ||d||  lg(rg) alpha_du alpha_pr  ls
 100 -2.4271689e-01 1.62e+01 1.89e+04  -6.0 1.27e+03  -6.6 1.46e-04 2.50e-03h  1
 101 -2.4289458e-01 7.36e+00 7.39e+04  -6.0 1.90e+02  -7.1 4.39e-03 5.45e-01h  1
 102 -2.4290398e-01 4.97e+00 1.41e+06  -6.0 1.61e+02  -7.6 4.55e-03 3.25e-01h  1
 103 -2.4287400e-01 4.53e+00 1.28e+06  -6.0 1.75e+01  -5.3 1.18e-04 8.83e-02h  1
 104 -2.4286965e-01 3.04e+00 8.62e+05  -6.0 1.07e+01  -5.8 9.80e-02 3.29e-01h  1
 105 -2.4286660e-01 4.97e-02 4.70e+02  -6.0 2.37e+01  -6.3 7.26e-01 1.00e+00h  1
 106 -2.4302577e-01 6.04e-03 5.40e+01  -6.0 9.50e-01  -5.0 1.00e+00 8.86e-01h  1
 107 -2.4301771e-01 8.57e-04 4.48e+01  -6.0 7.08e-01  -5.4 2.17e-01 1.00e+00f  1
 108 -2.4312241e-01 1.10e-03 7.78e+00  -6.0 2.23e+00  -5.9 1.00e+00 1.00e+00h  1
 109 -2.4317041e-01 2.00e-03 2.26e-01  -6.0 4.92e+00  -6.4 1.00e+00 1.00e+00h  1
iter    objective    inf_pr   inf_du lg(mu)  ||d||  lg(rg) alpha_du alpha_pr  ls
 110 -2.4322843e-01 9.97e-03 9.53e-02  -6.0 1.03e+01  -6.9 1.00e+00 1.00e+00h  1
 111 -2.4335166e-01 3.67e-02 3.19e-01  -6.0 2.25e+01  -7.3 1.00e+00 1.00e+00h  1
 112 -2.4340676e-01 3.42e-02 2.88e-01  -6.0 1.76e+02  -7.8 1.55e-01 1.51e-01h  1
 113 -2.4398990e-01 3.84e-01 2.32e+00  -6.0 1.13e+02  -8.3 7.85e-01 7.76e-01f  1
 114 -2.4431305e-01 2.06e-01 3.14e+00  -6.0 2.61e+02  -8.8 3.62e-01 3.02e-01h  1
 115 -2.4480959e-01 7.66e-01 5.48e+01  -6.0 1.01e+03  -9.2 5.87e-01 1.95e-01h  1
 116 -2.4546915e-01 3.42e+00 1.01e+02  -6.0 6.55e+03  -9.7 1.44e-01 8.15e-02h  1
 117 -2.4695280e-01 8.36e+00 3.59e+02  -6.0 1.09e+03  -9.3 3.30e-03 5.61e-01h  1
 118 -2.4812635e-01 1.72e+01 3.87e+02  -6.0 3.96e+04  -9.8 1.38e-03 2.27e-02h  1
 119 -2.4817289e-01 1.70e+01 9.94e+02  -6.0 6.26e+03 -10.3 1.41e-01 1.48e-02h  1
iter    objective    inf_pr   inf_du lg(mu)  ||d||  lg(rg) alpha_du alpha_pr  ls
 120 -2.4882670e-01 1.79e+01 9.45e+02  -6.0 4.33e+03  -9.8 3.62e-02 7.34e-02h  1
 121 -2.4891052e-01 1.72e+01 9.10e+02  -6.0 1.04e+03  -8.5 3.66e-02 3.60e-02h  1
 122 -2.4906570e-01 1.21e+00 1.61e+03  -6.0 3.47e+02  -8.1 8.54e-02 1.00e+00h  1
 123 -2.4907160e-01 1.19e+00 1.47e+03  -6.0 9.18e+01  -7.6 2.06e-01 1.87e-02h  1
 124 -2.4909094e-01 5.72e-02 2.46e+01  -6.0 3.05e+01  -7.2 9.50e-01 1.00e+00f  1
 125 -2.4926793e-01 4.03e-01 1.63e+00  -6.0 6.41e+01  -7.7 1.00e+00 1.00e+00h  1
 126 -2.4929077e-01 2.23e-01 9.27e+00  -6.0 2.63e+01  -7.3 9.85e-01 4.53e-01h  1
 127 -2.4947909e-01 9.11e-02 1.87e+00  -6.0 5.80e+01  -7.7 1.00e+00 1.00e+00h  1
 128 -2.4970414e-01 1.84e-01 3.41e+00  -6.0 2.08e+02  -8.2 3.86e-01 2.91e-01h  1
 129 -2.5064071e-01 2.54e+00 2.46e+02  -6.0 2.83e+02  -8.7 8.99e-01 1.00e+00h  1
iter    objective    inf_pr   inf_du lg(mu)  ||d||  lg(rg) alpha_du alpha_pr  ls
 130 -2.5085892e-01 1.83e+00 3.63e+02  -6.0 5.53e+02  -8.3 1.82e-01 1.24e-01h  1
 131 -2.5147601e-01 1.64e+00 1.30e+03  -6.0 5.29e+02  -8.8 1.39e-01 3.04e-01f  1
 132 -2.5260625e-01 4.08e+00 4.17e+03  -6.0 1.45e+03  -9.2 4.88e-02 2.48e-01h  1
 133 -2.5539172e-01 1.81e+01 7.71e+03  -6.0 2.03e+03  -9.7 1.96e-02 4.12e-01h  1
 134 -2.5589780e-01 1.89e+01 8.27e+03  -6.0 3.38e+04 -10.2 2.97e-03 6.45e-03h  1
 135 -2.5593170e-01 1.89e+01 7.51e+03  -6.0 6.45e+03  -9.8 3.19e-02 1.96e-03h  1
 136 -2.5675044e-01 1.26e+01 7.37e+03  -6.0 1.59e+03 -10.2 2.48e-01 3.33e-01h  1
 137 -2.5719035e-01 9.02e+00 3.96e+03  -6.0 2.22e+03 -10.7 3.18e-01 2.85e-01h  1
 138 -2.5728704e-01 7.87e+00 2.84e+03  -6.0 1.88e+03 -10.3 1.39e-01 1.28e-01h  1
 139 -2.5732013e-01 7.05e+00 9.30e+03  -6.0 2.83e+03 -10.8 3.24e-01 1.04e-01h  1
iter    objective    inf_pr   inf_du lg(mu)  ||d||  lg(rg) alpha_du alpha_pr  ls
 140 -2.5753379e-01 4.69e+00 1.18e+07  -6.0 1.15e+03 -10.3 1.48e-03 3.35e-01h  1
 141 -2.5756587e-01 4.00e+01 1.72e+06  -6.0 2.85e+03 -10.8 1.15e-01 8.55e-01h  1
 142 -2.5754140e-01 2.12e+01 9.13e+05  -6.0 3.09e+03 -11.3 1.23e-01 4.69e-01h  1
 143 -2.5756471e-01 2.34e+01 7.36e+05  -6.0 6.16e+03 -10.9 5.19e-01 1.95e-01H  1
 144 -2.5752846e-01 9.93e+00 2.68e+05  -6.0 5.62e+02 -10.4 2.20e-02 6.35e-01h  1
 145 -2.5749232e-01 1.86e+00 2.84e+04  -6.0 3.04e+02 -10.0 1.99e-01 8.94e-01h  1
 146 -2.5747334e-01 1.60e+00 2.45e+04  -6.0 2.03e+02  -6.9 7.49e-02 1.40e-01h  1
 147 -2.5736909e-01 6.90e-02 1.05e+03  -6.0 7.98e+00  -7.4 5.12e-01 9.57e-01h  1
 148 -2.5740040e-01 1.83e-03 3.88e+00  -6.0 3.09e+00  -7.8 1.00e+00 1.00e+00f  1
 149 -2.5743971e-01 1.72e-03 1.93e+00  -6.0 3.20e+00  -8.3 1.00e+00 1.00e+00h  1
iter    objective    inf_pr   inf_du lg(mu)  ||d||  lg(rg) alpha_du alpha_pr  ls
 150 -2.5744188e-01 9.06e-04 1.66e-02  -6.0 8.85e+00  -8.8 1.00e+00 1.00e+00h  1
 151 -2.5744217e-01 7.29e-03 4.54e-03  -6.0 2.49e+01  -9.3 1.00e+00 1.00e+00h  1
 152 -2.5743758e-01 6.67e-02 7.55e-02  -6.0 7.53e+01  -9.7 1.00e+00 1.00e+00h  1
 153 -2.5741163e-01 7.40e-01 1.87e+00  -6.0 2.32e+02 -10.2 1.00e+00 1.00e+00h  1
 154 -2.5733237e-01 5.57e-01 2.12e+01  -6.0 2.00e+02  -9.8 1.00e+00 1.00e+00h  1
 155 -2.5733899e-01 1.57e-02 1.56e+00  -6.0 5.40e+00  -7.6 1.00e+00 1.00e+00h  1
 156 -2.5730896e-01 2.77e-02 4.79e+00  -6.0 8.41e+00  -8.0 1.00e+00 1.00e+00h  1
 157 -2.5728831e-01 8.99e-02 1.45e+01  -6.0 2.90e+01  -8.5 1.00e+00 1.00e+00h  1
 158 -2.5730559e-01 2.76e-01 3.80e+01  -6.0 1.30e+02  -9.0 1.00e+00 1.00e+00h  1
 159 -2.5747687e-01 1.59e+00 1.71e+02  -6.0 7.95e+02  -9.5 2.94e-01 5.88e-01H  1
iter    objective    inf_pr   inf_du lg(mu)  ||d||  lg(rg) alpha_du alpha_pr  ls
 160 -2.5764363e-01 1.06e-01 3.89e+01  -6.0 2.67e+00  -6.3 1.00e+00 1.00e+00h  1
 161 -2.5794123e-01 3.69e-01 1.88e+02  -6.0 1.76e+01  -6.8 2.88e-01 5.75e-01H  1
 162 -2.5811007e-01 5.13e-01 6.89e+01  -6.0 4.19e+00  -6.4 1.00e+00 1.00e+00f  1
 163 -2.5848303e-01 4.19e-01 4.46e+02  -6.0 1.05e+01  -6.9 6.62e-01 8.91e-01H  1
 164 -2.5850004e-01 1.60e-01 1.61e+02  -6.0 7.80e+00  -7.3 1.00e+00 1.00e+00h  1
 165 -2.5855211e-01 1.47e-01 5.28e+01  -6.0 1.90e+01  -7.8 1.00e+00 1.00e+00h  1
 166 -2.5857003e-01 3.00e-02 3.64e+00  -6.0 4.58e+01  -8.3 1.00e+00 1.00e+00h  1
 167 -2.5863022e-01 2.53e-01 3.49e+00  -6.0 1.33e+02  -8.8 1.00e+00 1.00e+00h  1
 168 -2.5878745e-01 3.50e+00 7.13e+00  -6.0 3.67e+02  -9.3 8.51e-01 1.00e+00h  1
 169 -2.5910842e-01 1.03e+01 2.24e+01  -6.0 8.41e+02  -9.7 5.97e-01 1.00e+00h  1
iter    objective    inf_pr   inf_du lg(mu)  ||d||  lg(rg) alpha_du alpha_pr  ls
 170 -2.5948873e-01 2.16e+01 5.35e+01  -6.0 1.19e+03 -10.2 8.58e-01 1.00e+00h  1
 171 -2.5929418e-01 2.12e+01 1.21e+02  -6.0 6.33e+03  -9.8 1.36e-01 4.12e-01H  1
 172 -2.5940046e-01 1.99e+01 1.07e+02  -6.0 3.00e+03    -  1.88e-01 1.58e-01h  1
 173 -2.5969292e-01 5.31e+01 8.02e+01  -6.0 4.37e+03    -  2.50e-01 7.97e-01h  1
 174 -2.5968458e-01 4.99e+01 2.01e+02  -6.0 1.93e+03    -  1.92e-01 6.34e-02h  1
 175 -2.5968301e-01 4.66e+01 8.50e+01  -6.0 6.92e+02    -  1.00e-01 6.68e-02h  1
 176 -2.5956286e-01 1.50e+01 2.19e+01  -6.0 6.11e+02    -  7.57e-01 7.47e-01h  1
 177 -2.5957120e-01 4.86e+00 9.67e+01  -6.0 5.84e+02  -9.4 4.25e-02 1.00e+00h  1
 178 -2.5971119e-01 9.18e+00 1.69e+02  -6.0 6.27e+03  -9.8 3.47e-03 7.35e-02h  1
 179 -2.5958273e-01 8.07e+00 1.41e+02  -6.0 2.24e+03 -10.3 6.07e-02 1.28e-01h  1
iter    objective    inf_pr   inf_du lg(mu)  ||d||  lg(rg) alpha_du alpha_pr  ls
 180 -2.5961530e-01 7.04e+00 1.23e+02  -6.0 4.40e+02  -9.9 1.23e-02 1.32e-01h  1
 181 -2.5960452e-01 2.05e+00 5.70e+01  -6.0 3.36e+02  -9.5 2.96e-01 1.00e+00h  1
 182 -2.5977523e-01 1.47e+00 1.59e+01  -6.0 3.09e+02  -9.9 5.96e-01 7.01e-01h  1
 183 -2.5977149e-01 1.47e+00 2.76e+01  -6.0 1.79e+05 -10.4 1.99e-03 6.71e-04h  3
 184 -2.5990942e-01 5.22e-01 1.79e+00  -6.0 1.35e+02  -9.1 9.68e-01 1.00e+00h  1
 185 -2.5992892e-01 7.33e-01 5.50e+00  -6.0 2.55e+02  -9.6 4.96e-01 1.00e+00h  1
 186 -2.6002184e-01 1.93e+00 1.40e+00  -6.0 4.29e+02 -10.0 1.00e+00 1.00e+00h  1
 187 -2.6003696e-01 1.41e+00 2.85e+01  -6.0 6.66e+02 -10.5 9.12e-01 2.73e-01H  1
 188 -2.6004173e-01 1.95e-02 1.11e-01  -6.0 4.43e+01  -9.2 1.00e+00 1.00e+00h  1
 189 -2.6010537e-01 1.26e+00 5.76e+00  -6.0 8.22e+02    -  1.00e+00 6.51e-01h  1
iter    objective    inf_pr   inf_du lg(mu)  ||d||  lg(rg) alpha_du alpha_pr  ls
 190 -2.6013289e-01 1.05e-01 1.44e-01  -6.0 3.57e+02    -  1.00e+00 1.00e+00h  1
 191 -2.6013250e-01 5.19e-04 4.17e-04  -6.0 1.75e+01    -  1.00e+00 1.00e+00h  1
 192 -2.6013250e-01 6.20e-09 6.88e-09  -6.0 1.86e-02    -  1.00e+00 1.00e+00h  1
 193 -2.6064113e-01 1.57e+00 6.98e+01  -7.5 2.22e+03    -  4.68e-01 2.23e-01f  1
 194 -2.6075180e-01 1.60e+00 6.45e+01  -7.5 2.42e+03    -  6.40e-02 6.78e-02h  1
 195 -2.6077528e-01 1.58e+00 1.17e+02  -7.5 1.17e+02  -8.8 3.97e-01 2.33e-02h  1
 196 -2.6129939e-01 7.72e+00 5.37e+01  -7.5 2.84e+03    -  2.84e-03 3.76e-01h  1
 197 -2.6136067e-01 6.79e+00 1.09e+02  -7.5 2.05e+02  -9.2 4.64e-01 1.21e-01h  1
 198 -2.6141409e-01 8.42e+00 9.25e+01  -7.5 4.72e+03    -  3.78e-03 7.36e-02h  1
 199 -2.6174866e-01 4.39e+00 2.45e+01  -7.5 2.25e+03    -  3.12e-01 5.99e-01h  1
iter    objective    inf_pr   inf_du lg(mu)  ||d||  lg(rg) alpha_du alpha_pr  ls
 200 -2.6175112e-01 4.33e+00 4.90e+01  -7.5 1.51e+03    -  5.86e-01 1.32e-02h  1
 201 -2.6186182e-01 8.10e+00 7.48e+00  -7.5 1.52e+03    -  5.97e-02 5.53e-01h  1
 202 -2.6186927e-01 6.92e+00 1.93e+01  -7.5 5.52e+02    -  6.18e-01 1.46e-01h  1
 203 -2.6188106e-01 5.27e+00 2.22e+01  -7.5 5.15e+02    -  1.00e+00 2.38e-01h  1
 204 -2.6191012e-01 1.72e-01 1.30e+00  -7.5 4.12e+01  -9.7 4.11e-01 1.00e+00h  1
 205 -2.6192425e-01 2.59e+01 1.20e+00  -7.5 3.52e+03    -  3.10e-02 3.34e-01h  1
 206 -2.6193426e-01 2.95e+01 1.18e+00  -7.5 1.61e+03    -  1.10e-03 6.21e-01h  1
 207 -2.6192241e-01 1.48e+01 1.82e+00  -7.5 1.55e+03    -  4.40e-02 5.00e-01h  2
 208 -2.6191841e-01 1.16e+01 1.36e+00  -7.5 2.18e+02 -10.2 2.54e-01 2.17e-01h  1
 209 -2.6191843e-01 1.01e+01 1.20e+00  -7.5 1.75e+03    -  9.07e-02 1.25e-01h  4
iter    objective    inf_pr   inf_du lg(mu)  ||d||  lg(rg) alpha_du alpha_pr  ls
 210 -2.6191800e-01 5.08e+00 7.04e-01  -7.5 6.56e+01 -10.7 1.00e+00 5.00e-01h  2
 211 -2.6191812e-01 4.18e+00 5.82e-01  -7.5 1.45e+02 -11.1 1.00e+00 1.77e-01h  2
 212 -2.6191881e-01 2.40e+00 3.45e-01  -7.5 1.40e+02 -10.7 1.00e+00 4.28e-01h  2
 213 -2.6192033e-01 1.24e+00 1.67e-01  -7.5 3.91e+02 -11.2 2.08e-01 5.28e-01h  1
 214 -2.6192463e-01 5.50e+00 4.87e-02  -7.5 5.43e+02 -11.7 1.00e+00 1.00e+00h  1
 215 -2.6192700e-01 5.26e+00 7.98e-02  -7.5 2.29e+03 -12.1 1.27e-01 9.12e-02h  1
 216 -2.6192694e-01 9.27e+00 7.54e-01  -7.5 1.16e+04 -12.6 1.91e-01 5.95e-02h  3
 217 -2.6192500e-01 6.68e+00 7.98e-01  -7.5 1.71e+03 -12.2 1.05e-01 1.00e+00H  1
 218 -2.6192545e-01 1.10e+01 5.97e-01  -7.5 2.51e+04 -12.7 8.11e-02 2.26e-02h  3
 219 -2.6192818e-01 2.81e+01 1.57e+00  -7.5 2.80e+03 -12.2 2.48e-02 1.00e+00H  1
iter    objective    inf_pr   inf_du lg(mu)  ||d||  lg(rg) alpha_du alpha_pr  ls
 220 -2.6192828e-01 1.45e-01 5.27e-03  -7.5 6.81e+01 -10.9 1.00e+00 1.00e+00h  1
 221 -2.6192934e-01 1.50e+01 4.52e-01  -7.5 1.95e+03    -  9.19e-01 5.00e-01h  2
 222 -2.6192992e-01 4.67e+00 1.98e-02  -7.5 5.19e+02    -  1.00e+00 1.00e+00h  1
 223 -2.6192991e-01 2.58e-05 4.60e-05  -7.5 3.44e+00    -  1.00e+00 1.00e+00h  1
 224 -2.6192991e-01 1.54e-06 2.43e-07  -7.5 3.02e-01    -  1.00e+00 1.00e+00h  1
 225 -2.6192991e-01 3.05e-10 4.98e-13  -7.5 4.16e-05    -  1.00e+00 1.00e+00h  1
 226 -2.6193232e-01 2.66e+00 4.07e+00  -9.0 1.63e+03    -  5.20e-01 2.44e-01h  1
 227 -2.6193560e-01 5.63e+01 4.46e-01  -9.0 3.09e+03    -  4.08e-01 5.84e-01h  1
 228 -2.6193637e-01 3.87e+01 1.02e+01  -9.0 1.48e+03    -  6.50e-03 5.45e-01h  1
 229 -2.6193740e-01 3.72e+01 3.53e+00  -9.0 1.43e+03    -  1.01e-01 8.86e-01h  1
iter    objective    inf_pr   inf_du lg(mu)  ||d||  lg(rg) alpha_du alpha_pr  ls
 230 -2.6193822e-01 2.85e+01 2.05e+00  -9.0 1.13e+03    -  4.52e-01 1.00e+00h  1
 231 -2.6193874e-01 3.84e+01 1.79e+00  -9.0 9.43e+03    -  1.28e-01 7.79e-02h  1
 232 -2.6193921e-01 2.78e+01 3.38e+00  -9.0 1.66e+03    -  2.29e-01 3.42e-01h  1
 233 -2.6193921e-01 2.78e+01 3.71e+00  -9.0 1.17e+05    -  6.30e-03 1.95e-04h  8
 234 -2.6193966e-01 3.32e-02 4.14e+01  -9.0 6.50e+01 -11.4 1.38e-01 1.00e+00h  1
 235 -2.6193967e-01 3.36e-02 3.16e+01  -9.0 9.06e+01 -11.9 8.62e-01 2.37e-01h  2
 236 -2.6193968e-01 1.02e+00 1.86e+01  -9.0 2.80e+02 -12.4 1.00e+00 4.09e-01h  2
 237 -2.6193982e-01 1.32e+01 9.05e-03  -9.0 1.06e+03 -12.8 1.47e-01 1.00e+00h  1
 238 -2.6193994e-01 2.12e+00 1.07e-02  -9.0 4.17e+02 -12.4 1.02e-01 1.00e+00h  1
 239 -2.6193999e-01 3.99e-01 4.76e-05  -9.0 1.80e+02 -12.0 1.00e+00 1.00e+00h  1
iter    objective    inf_pr   inf_du lg(mu)  ||d||  lg(rg) alpha_du alpha_pr  ls
 240 -2.6194018e-01 4.51e+00 5.42e-04  -9.0 6.05e+02 -12.5 1.00e+00 1.00e+00h  1
 241 -2.6194100e-01 9.35e+01 1.13e-02  -9.0 4.73e+03 -12.9 5.39e-01 5.73e-01h  1
 242 -2.6194106e-01 9.25e+01 3.02e-02  -9.0 2.71e+04 -13.4 8.58e-02 1.10e-02h  4
 243 -2.6194129e-01 8.32e+01 1.06e-01  -9.0 2.53e+03 -13.0 4.76e-01 1.13e-01h  1
 244 -2.6194137e-01 8.21e+01 1.41e-01  -9.0 2.19e+04 -13.5 1.11e-01 1.29e-02h  4
 245 -2.6194313e-01 8.12e+01 4.67e-02  -9.0 2.78e+03 -13.0 1.00e+00 8.71e-01h  1
 246 -2.6194503e-01 6.30e+01 1.61e+01  -9.0 1.98e+03    -  7.88e-05 1.00e+00h  1
 247 -2.6194521e-01 5.62e+01 1.41e+01  -9.0 1.84e+03    -  3.73e-01 1.22e-01h  1
 248 -2.6194667e-01 5.45e+01 4.11e-01  -9.0 1.75e+03    -  8.48e-01 1.00e+00h  1
 249 -2.6194758e-01 6.45e+01 6.87e-01  -9.0 2.25e+04    -  4.83e-02 9.05e-02h  1
iter    objective    inf_pr   inf_du lg(mu)  ||d||  lg(rg) alpha_du alpha_pr  ls
 250 -2.6194766e-01 5.30e+01 1.51e+00  -9.0 1.69e+03    -  3.20e-01 2.08e-01h  1
 251 -2.6194855e-01 5.16e+01 5.10e-01  -9.0 2.67e+03    -  1.39e-01 4.01e-01h  1
 252 -2.6194901e-01 4.14e+01 1.35e+00  -9.0 1.67e+03    -  5.09e-01 2.71e-01h  1
 253 -2.6194986e-01 3.43e+01 5.19e+02  -9.0 1.67e+03    -  1.47e-02 5.35e-01h  1
 254 -2.6195078e-01 3.45e+01 1.26e+02  -9.0 1.48e+03    -  8.96e-03 7.65e-01h  1
 255 -2.6195078e-01 3.34e+01 1.21e+02  -9.0 2.88e+03    -  1.20e-01 3.85e-02h  1
 256 -2.6195122e-01 3.42e+01 8.64e+01  -9.0 3.01e+03    -  2.20e-02 2.87e-01h  1
 257 -2.6195117e-01 3.38e+01 8.02e+01  -9.0 4.43e+03    -  1.83e-02 7.08e-02h  1
 258 -2.6195123e-01 3.11e+01 7.36e+01  -9.0 1.46e+03    -  3.29e-01 8.25e-02h  1
 259 -2.6195136e-01 2.39e+01 5.61e+01  -9.0 1.42e+03    -  4.80e-02 2.38e-01h  1
iter    objective    inf_pr   inf_du lg(mu)  ||d||  lg(rg) alpha_du alpha_pr  ls
 260 -2.6195141e-01 5.16e+00 2.24e+03  -9.0 4.83e+02    -  1.55e-03 1.00e+00h  1
 261 -2.6195179e-01 4.85e+01 2.63e+02  -9.0 1.72e+03    -  6.89e-01 8.83e-01h  1
 262 -2.6195167e-01 2.81e+01 1.31e+02  -9.0 8.66e+02    -  1.44e-01 5.00e-01h  2
 263 -2.6195170e-01 2.79e+01 1.29e+02  -9.0 6.37e+03    -  2.69e-01 1.83e-02h  4
 264 -2.6195193e-01 2.59e+01 6.80e+01  -9.0 1.66e+03    -  1.00e+00 4.73e-01H  1
 265 -2.6195189e-01 1.09e+00 4.80e+00  -9.0 2.39e+02    -  3.09e-01 1.00e+00h  1
 266 -2.6195202e-01 2.91e+00 4.02e+00  -9.0 2.10e+03    -  6.89e-01 1.63e-01h  1
 267 -2.6195203e-01 7.18e-01 3.21e-04  -9.0 1.73e+02    -  1.00e+00 1.00e+00h  1
 268 -2.6195205e-01 3.58e-02 7.79e-06  -9.0 3.86e+01    -  1.00e+00 1.00e+00h  1
 269 -2.6195205e-01 3.60e-04 4.91e-08  -9.0 3.87e+00    -  1.00e+00 1.00e+00h  1
iter    objective    inf_pr   inf_du lg(mu)  ||d||  lg(rg) alpha_du alpha_pr  ls
 270 -2.6195205e-01 1.77e-09 8.94e-14  -9.0 8.21e-03    -  1.00e+00 1.00e+00h  1

Number of Iterations....: 270

                                   (scaled)                 (unscaled)
Objective...............:  -2.6195204894562801e-01   -2.6195204894562801e-01
Dual infeasibility......:   8.9360216197910985e-14    8.9360216197910985e-14
Constraint violation....:   9.5078711180175936e-10    1.7716956790536642e-09
Complementarity.........:   9.0909091850962999e-10    9.0909091850962999e-10
Overall NLP error.......:   9.5078711180175936e-10    1.7716956790536642e-09


Number of objective function evaluations             = 377
Number of objective gradient evaluations             = 271
Number of equality constraint evaluations            = 377
Number of inequality constraint evaluations          = 378
Number of equality constraint Jacobian evaluations   = 272
Number of inequality constraint Jacobian evaluations = 272
Number of Lagrangian Hessian evaluations             = 270
Total CPU secs in IPOPT (w/o function evaluations)   =    611.589
Total CPU secs in NLP function evaluations           =     11.930

EXIT: Optimal Solution Found.
